n = 25;
costtab =
  [|1, 8, 25, -639,
   |1, 13, 25, -1485,
   |1, 14, 25, -667,
   |1, 23, 25, -443,
   |1, 1, 1, 0,
   |2, 9, 13, -1208,
   |2, 9, 14, -1200,
   |2, 9, 19, -1208,
   |2, 13, 9, -521,
   |2, 13, 14, -506,
   |2, 13, 19, -518,
   |2, 14, 9, -893,
   |2, 14, 13, -886,
   |2, 14, 19, -896,
   |2, 19, 9, -1070,
   |2, 19, 13, -1067,
   |2, 19, 14, -1065,
   |2, 2, 2, 0,
   |3, 9, 15, -571,
   |3, 9, 19, -576,
   |3, 9, 24, -568,
   |3, 15, 9, -1078,
   |3, 15, 19, -1082,
   |3, 15, 24, -1066,
   |3, 19, 9, -922,
   |3, 19, 15, -921,
   |3, 19, 24, -905,
   |3, 24, 9, -608,
   |3, 24, 15, -599,
   |3, 24, 19, -599,
   |3, 3, 3, 0,
   |4, 20, 21, -804,
   |4, 21, 20, -883,
   |4, 4, 4, 0,
   |5, 10, 22, -1133,
   |5, 22, 10, -418,
   |5, 5, 5, 0,
   |6, 25, 18, -391,
   |6, 6, 6, 0,
   |7, 8, 13, -1382,
   |7, 13, 8, -679,
   |7, 7, 7, 0,
   |8, 7, 1, -1361,
   |8, 7, 13, -1388,
   |8, 7, 23, -1364,
   |8, 13, 1, -1205,
   |8, 13, 7, -1223,
   |8, 13, 23, -1202,
   |8, 23, 1, -302,
   |8, 23, 7, -278,
   |8, 23, 13, -281,
   |8, 8, 8, 0,
   |9, 2, 3, -1166,
   |9, 2, 10, -1180,
   |9, 2, 19, -1202,
   |9, 2, 20, -1174,
   |9, 2, 24, -1179,
   |9, 3, 2, -534,
   |9, 3, 10, -570,
   |9, 3, 19, -555,
   |9, 3, 20, -573,
   |9, 3, 24, -572,
   |9, 10, 2, -1063,
   |9, 10, 3, -1085,
   |9, 10, 19, -1058,
   |9, 10, 20, -1091,
   |9, 10, 24, -1092,
   |9, 19, 2, -558,
   |9, 19, 3, -542,
   |9, 19, 10, -530,
   |9, 19, 20, -541,
   |9, 19, 24, -526,
   |9, 20, 2, -1673,
   |9, 20, 3, -1703,
   |9, 20, 10, -1706,
   |9, 20, 19, -1684,
   |9, 20, 24, -1705,
   |9, 24, 2, -674,
   |9, 24, 3, -698,
   |9, 24, 10, -704,
   |9, 24, 19, -665,
   |9, 24, 20, -702,
   |9, 9, 9, 0,
   |10, 5, 9, -1141,
   |10, 5, 16, -1148,
   |10, 5, 20, -1143,
   |10, 9, 5, -1081,
   |10, 9, 16, -1081,
   |10, 9, 20, -1069,
   |10, 16, 5, -536,
   |10, 16, 9, -529,
   |10, 16, 20, -517,
   |10, 20, 5, -954,
   |10, 20, 9, -940,
   |10, 20, 16, -940,
   |10, 10, 10, 0,
   |11, 17, 21, -1287,
   |11, 21, 17, -856,
   |11, 11, 11, 0,
   |12, 12, 12, 0,
   |13, 2, 1, -510,
   |13, 2, 7, -488,
   |13, 2, 8, -508,
   |13, 2, 19, -501,
   |13, 7, 1, -665,
   |13, 7, 2, -652,
   |13, 7, 8, -672,
   |13, 7, 19, -677,
   |13, 8, 1, -1224,
   |13, 8, 2, -1211,
   |13, 8, 7, -1210,
   |13, 8, 19, -1224,
   |13, 19, 1, -809,
   |13, 19, 2, -791,
   |13, 19, 7, -803,
   |13, 19, 8, -811,
   |13, 13, 13, 0,
   |14, 2, 1, -864,
   |14, 14, 14, 0,
   |15, 3, 24, -1084,
   |15, 24, 3, -1333,
   |15, 15, 15, 0,
   |16, 10, 22, -520,
   |16, 22, 10, -1044,
   |16, 16, 16, 0,
   |17, 11, 12, -1292,
   |17, 12, 11, -495,
   |17, 17, 17, 0,
   |18, 18, 18, 0,
   |19, 2, 3, -1045,
   |19, 2, 9, -1056,
   |19, 2, 13, -1070,
   |19, 3, 2, -897,
   |19, 3, 9, -922,
   |19, 3, 13, -906,
   |19, 9, 2, -550,
   |19, 9, 3, -563,
   |19, 9, 13, -556,
   |19, 13, 2, -811,
   |19, 13, 3, -794,
   |19, 13, 9, -803,
   |19, 19, 19, 0,
   |20, 4, 9, -806,
   |20, 4, 10, -816,
   |20, 9, 4, -1691,
   |20, 9, 10, -1706,
   |20, 10, 4, -956,
   |20, 10, 9, -961,
   |20, 20, 20, 0,
   |21, 4, 11, -895,
   |21, 11, 4, -865,
   |21, 21, 21, 0,
   |22, 5, 16, -431,
   |22, 16, 5, -1058,
   |22, 22, 22, 0,
   |23, 8, 1, -274,
   |23, 23, 23, 0,
   |24, 3, 9, -613,
   |24, 3, 15, -613,
   |24, 9, 3, -699,
   |24, 9, 15, -701,
   |24, 15, 3, -1329,
   |24, 15, 9, -1331,
   |24, 25, 3, -1301,
   |24, 25, 9, -1298,
   |24, 25, 15, -1288,
   |24, 24, 24, 0,
   |];

